p cnf 14 27
-14 12 -4 0
-14 -11 -1 0
-14 9 -8 0
14 -9 -6 0
-14 8 -7 0
-14 -5 1 0
13 -12 -4 0
-13 11 -3 0
-13 -11 2 0
13 9 4 0
12 -11 6 0
12 8 1 0
-12 -6 2 0
12 5 2 0
11 -10 9 0
-11 -9 -5 0
-11 -6 3 0
11 -5 3 0
11 4 2 0
-10 -8 -5 0
10 7 2 0
10 -5 -3 0
9 -8 -2 0
-9 7 -5 0
-8 -6 1 0
8 -4 2 0
-7 6 4 0
